<?xml version = "1.0" standalone="yes"?>
<!-- This file has been generated by DOcplex version 2.23.222  -->
<CPLEXSolution version="1.0">
 <header
   problemName="CVRP"
   objectiveValue="19863.3"
  />
 <variables>
  <variable name="x_0_1" index="0" value="1.00000"/>
  <variable name="x_0_4" index="3" value="1.00000"/>
  <variable name="x_0_7" index="6" value="1.00000"/>
  <variable name="x_0_8" index="7" value="1.00000"/>
  <variable name="x_0_9" index="8" value="1.00000"/>
  <variable name="x_0_10" index="9" value="1.00000"/>
  <variable name="x_0_11" index="10" value="1.00000"/>
  <variable name="x_0_13" index="12" value="1.00000"/>
  <variable name="x_0_14" index="13" value="1.00000"/>
  <variable name="x_0_15" index="14" value="1.00000"/>
  <variable name="x_0_19" index="18" value="1.00000"/>
  <variable name="x_0_21" index="20" value="1.00000"/>
  <variable name="x_0_24" index="23" value="1.00000"/>
  <variable name="x_0_25" index="24" value="1.00000"/>
  <variable name="x_1_5" index="29" value="1.00000"/>
  <variable name="x_2_12" index="61" value="1.00000"/>
  <variable name="x_3_0" index="75" value="1.00000"/>
  <variable name="x_4_22" index="121" value="1.00000"/>
  <variable name="x_5_0" index="125" value="1.00000"/>
  <variable name="x_6_0" index="150" value="1.00000"/>
  <variable name="x_7_23" index="197" value="1.00000"/>
  <variable name="x_8_0" index="200" value="1.00000"/>
  <variable name="x_9_0" index="225" value="1.00000"/>
  <variable name="x_10_0" index="250" value="1.00000"/>
  <variable name="x_11_2" index="277" value="1.00000"/>
  <variable name="x_12_0" index="300" value="1.00000"/>
  <variable name="x_13_18" index="342" value="1.00000"/>
  <variable name="x_14_0" index="350" value="1.00000"/>
  <variable name="x_15_0" index="375" value="1.00000"/>
  <variable name="x_16_3" index="403" value="1.00000"/>
  <variable name="x_17_0" index="425" value="1.00000"/>
  <variable name="x_18_0" index="450" value="1.00000"/>
  <variable name="x_19_6" index="481" value="1.00000"/>
  <variable name="x_20_0" index="500" value="1.00000"/>
  <variable name="x_21_0" index="525" value="1.00000"/>
  <variable name="x_22_0" index="550" value="1.00000"/>
  <variable name="x_23_20" index="595" value="1.00000"/>
  <variable name="x_24_17" index="617" value="1.00000"/>
  <variable name="x_25_16" index="641" value="1.00000"/>
  <variable name="u_1" index="650" value="50.00000"/>
  <variable name="u_2" index="651" value="24.00000"/>
  <variable name="u_3" index="652" value="68.00000"/>
  <variable name="u_4" index="653" value="32.00000"/>
  <variable name="u_5" index="654" value="66.00000"/>
  <variable name="u_6" index="655" value="68.00000"/>
  <variable name="u_7" index="656" value="39.00000"/>
  <variable name="u_8" index="657" value="50.00000"/>
  <variable name="u_9" index="658" value="68.00000"/>
  <variable name="u_10" index="659" value="65.00000"/>
  <variable name="u_11" index="660" value="3.00000"/>
  <variable name="u_12" index="661" value="49.00000"/>
  <variable name="u_13" index="662" value="23.00000"/>
  <variable name="u_14" index="663" value="54.00000"/>
  <variable name="u_15" index="664" value="68.00000"/>
  <variable name="u_16" index="665" value="29.00000"/>
  <variable name="u_17" index="666" value="66.00000"/>
  <variable name="u_18" index="667" value="68.00000"/>
  <variable name="u_19" index="668" value="45.00000"/>
  <variable name="u_20" index="669" value="68.00000"/>
  <variable name="u_21" index="670" value="68.00000"/>
  <variable name="u_22" index="671" value="68.00000"/>
  <variable name="u_23" index="672" value="47.00000"/>
  <variable name="u_24" index="673" value="52.00000"/>
  <variable name="u_25" index="674" value="10.00000"/>
 </variables>
</CPLEXSolution>
